TOUR_SECTION
2
180
130
94
188
109
19
90
3
46
200
143
95
5
69
77
157
101
139
76
52
104
31
68
83
87
145
41
4
141
29
127
13
147
37
44
56
174
168
49
108
39
63
155
67
196
80
43
119
126
6
9
173
125
34
82
105
184
153
106
30
161
84
121
194
146
158
138
61
192
50
149
102
132
198
36
183
85
140
72
128
193
70
51
86
164
144
118
116
175
112
186
120
179
133
199
177
74
191
78
38
65
182
60
162
14
81
114
176
53
59
20
99
79
40
148
21
11
189
123
100
27
15
151
129
91
165
73
124
48
26
152
167
62
134
75
66
98
7
103
171
159
160
156
92
187
24
163
71
122
18
23
135
195
12
1
172
89
57
170
154
181
28
96
88
142
16
113
178
47
197
10
25
35
115
93
131
42
169
110
107
185
64
150
32
22
58
45
166
117
97
33
137
190
111
54
136
8
55
17
-1
EOF